0 43 
1 43 
2 42 
3 39 
4 41 
5 43 
6 43 
7 44 
8 41 
9 37 
10 36 
11 32 
12 30 
13 27 
14 25 
15 20 
16 18 
17 19 
18 19 
19 17 
20 16 
21 12 
22 10 
23 10 
24 10 
25 11 
26 15 
27 13 
28 11 
29 11 
30 7 
31 5 
32 3 
33 1 
34 1 
35 0 
36 0 

